p cnf 200 600
c weights 1.0 1.0 2.718281828459045 0.36787944117144233 2.718281828459045 0.36787944117144233 2.718281828459045 0.36787944117144233 2.718281828459045 0.36787944117144233 2.718281828459045 0.36787944117144233 1.0 1.0 2.718281828459045 0.36787944117144233 2.718281828459045 0.36787944117144233 2.718281828459045 0.36787944117144233 2.718281828459045 0.36787944117144233 2.718281828459045 0.36787944117144233 2.718281828459045 0.36787944117144233 1.0 1.0 2.718281828459045 0.36787944117144233 2.718281828459045 0.36787944117144233 2.718281828459045 0.36787944117144233 2.718281828459045 0.36787944117144233 2.718281828459045 0.36787944117144233 2.718281828459045 0.36787944117144233 2.718281828459045 0.36787944117144233 2.718281828459045 0.36787944117144233 2.718281828459045 0.36787944117144233 1.0 1.0 2.718281828459045 0.36787944117144233 2.718281828459045 0.36787944117144233 2.718281828459045 0.36787944117144233 2.718281828459045 0.36787944117144233 2.718281828459045 0.36787944117144233 2.718281828459045 0.36787944117144233 1.0 1.0 2.718281828459045 0.36787944117144233 2.718281828459045 0.36787944117144233 2.718281828459045 0.36787944117144233 2.718281828459045 0.36787944117144233 2.718281828459045 0.36787944117144233 2.718281828459045 0.36787944117144233 2.718281828459045 0.36787944117144233 1.0 1.0 2.718281828459045 0.36787944117144233 2.718281828459045 0.36787944117144233 2.718281828459045 0.36787944117144233 2.718281828459045 0.36787944117144233 2.718281828459045 0.36787944117144233 1.0 1.0 2.718281828459045 0.36787944117144233 2.718281828459045 0.36787944117144233 2.718281828459045 0.36787944117144233 2.718281828459045 0.36787944117144233 1.0 1.0 2.718281828459045 0.36787944117144233 2.718281828459045 0.36787944117144233 2.718281828459045 0.36787944117144233 2.718281828459045 0.36787944117144233 2.718281828459045 0.36787944117144233 2.718281828459045 0.36787944117144233 2.718281828459045 0.36787944117144233 1.0 1.0 2.718281828459045 0.36787944117144233 2.718281828459045 0.36787944117144233 2.718281828459045 0.36787944117144233 2.718281828459045 0.36787944117144233 2.718281828459045 0.36787944117144233 2.718281828459045 0.36787944117144233 2.718281828459045 0.36787944117144233 2.718281828459045 0.36787944117144233 2.718281828459045 0.36787944117144233 2.718281828459045 0.36787944117144233 1.0 1.0 2.718281828459045 0.36787944117144233 2.718281828459045 0.36787944117144233 2.718281828459045 0.36787944117144233 2.718281828459045 0.36787944117144233 1.0 1.0 2.718281828459045 0.36787944117144233 2.718281828459045 0.36787944117144233 2.718281828459045 0.36787944117144233 1.0 1.0 2.718281828459045 0.36787944117144233 2.718281828459045 0.36787944117144233 2.718281828459045 0.36787944117144233 1.0 1.0 2.718281828459045 0.36787944117144233 2.718281828459045 0.36787944117144233 2.718281828459045 0.36787944117144233 1.0 1.0 2.718281828459045 0.36787944117144233 2.718281828459045 0.36787944117144233 1.0 1.0 2.718281828459045 0.36787944117144233 2.718281828459045 0.36787944117144233 2.718281828459045 0.36787944117144233 2.718281828459045 0.36787944117144233 2.718281828459045 0.36787944117144233 2.718281828459045 0.36787944117144233 2.718281828459045 0.36787944117144233 2.718281828459045 0.36787944117144233 1.0 1.0 2.718281828459045 0.36787944117144233 2.718281828459045 0.36787944117144233 2.718281828459045 0.36787944117144233 2.718281828459045 0.36787944117144233 1.0 1.0 2.718281828459045 0.36787944117144233 2.718281828459045 0.36787944117144233 2.718281828459045 0.36787944117144233 2.718281828459045 0.36787944117144233 2.718281828459045 0.36787944117144233 1.0 1.0 2.718281828459045 0.36787944117144233 2.718281828459045 0.36787944117144233 2.718281828459045 0.36787944117144233 2.718281828459045 0.36787944117144233 2.718281828459045 0.36787944117144233 1.0 1.0 2.718281828459045 0.36787944117144233 2.718281828459045 0.36787944117144233 2.718281828459045 0.36787944117144233 2.718281828459045 0.36787944117144233 1.0 1.0 2.718281828459045 0.36787944117144233 2.718281828459045 0.36787944117144233 1.0 1.0 2.718281828459045 0.36787944117144233 2.718281828459045 0.36787944117144233 2.718281828459045 0.36787944117144233 2.718281828459045 0.36787944117144233 1.0 1.0 2.718281828459045 0.36787944117144233 2.718281828459045 0.36787944117144233 1.0 1.0 2.718281828459045 0.36787944117144233 2.718281828459045 0.36787944117144233 2.718281828459045 0.36787944117144233 1.0 1.0 2.718281828459045 0.36787944117144233 2.718281828459045 0.36787944117144233 2.718281828459045 0.36787944117144233 1.0 1.0 2.718281828459045 0.36787944117144233 2.718281828459045 0.36787944117144233 2.718281828459045 0.36787944117144233 1.0 1.0 2.718281828459045 0.36787944117144233 2.718281828459045 0.36787944117144233 2.718281828459045 0.36787944117144233 1.0 1.0 2.718281828459045 0.36787944117144233 2.718281828459045 0.36787944117144233 2.718281828459045 0.36787944117144233 2.718281828459045 0.36787944117144233 2.718281828459045 0.36787944117144233 1.0 1.0 1.0 1.0 2.718281828459045 0.36787944117144233 1.0 1.0 2.718281828459045 0.36787944117144233 2.718281828459045 0.36787944117144233 1.0 1.0 2.718281828459045 0.36787944117144233 1.0 1.0 2.718281828459045 0.36787944117144233 2.718281828459045 0.36787944117144233 2.718281828459045 0.36787944117144233 2.718281828459045 0.36787944117144233 2.718281828459045 0.36787944117144233 1.0 1.0 2.718281828459045 0.36787944117144233 2.718281828459045 0.36787944117144233 2.718281828459045 0.36787944117144233 1.0 1.0 1.0 1.0 2.718281828459045 0.36787944117144233 2.718281828459045 0.36787944117144233 2.718281828459045 0.36787944117144233 1.0 1.0 1.0 1.0 2.718281828459045 0.36787944117144233 2.718281828459045 0.36787944117144233 1.0 1.0 2.718281828459045 0.36787944117144233 1.0 1.0 1.0 1.0 2.718281828459045 0.36787944117144233 1.0 1.0 1.0 1.0 1.0 1.0 2.718281828459045 0.36787944117144233 2.718281828459045 0.36787944117144233 1.0 1.0 2.718281828459045 0.36787944117144233 1.0 1.0 2.718281828459045 0.36787944117144233 1.0 1.0 2.718281828459045 0.36787944117144233 1.0 1.0 1.0 1.0 2.718281828459045 0.36787944117144233 1.0 1.0 1.0 1.0
2 1 74 0
2 -1 -74 0
-2 1 -74 0
-2 -1 74 0
3 1 120 0
3 -1 -120 0
-3 1 -120 0
-3 -1 120 0
4 1 123 0
4 -1 -123 0
-4 1 -123 0
-4 -1 123 0
5 1 135 0
5 -1 -135 0
-5 1 -135 0
-5 -1 135 0
6 1 167 0
6 -1 -167 0
-6 1 -167 0
-6 -1 167 0
8 7 39 0
8 -7 -39 0
-8 7 -39 0
-8 -7 39 0
9 7 123 0
9 -7 -123 0
-9 7 -123 0
-9 -7 123 0
10 7 182 0
10 -7 -182 0
-10 7 -182 0
-10 -7 182 0
11 7 183 0
11 -7 -183 0
-11 7 -183 0
-11 -7 183 0
12 7 190 0
12 -7 -190 0
-12 7 -190 0
-12 -7 190 0
13 7 194 0
13 -7 -194 0
-13 7 -194 0
-13 -7 194 0
15 14 24 0
15 -14 -24 0
-15 14 -24 0
-15 -14 24 0
16 14 31 0
16 -14 -31 0
-16 14 -31 0
-16 -14 31 0
17 14 74 0
17 -14 -74 0
-17 14 -74 0
-17 -14 74 0
18 14 78 0
18 -14 -78 0
-18 14 -78 0
-18 -14 78 0
19 14 135 0
19 -14 -135 0
-19 14 -135 0
-19 -14 135 0
20 14 139 0
20 -14 -139 0
-20 14 -139 0
-20 -14 139 0
21 14 154 0
21 -14 -154 0
-21 14 -154 0
-21 -14 154 0
22 14 196 0
22 -14 -196 0
-22 14 -196 0
-22 -14 196 0
23 14 199 0
23 -14 -199 0
-23 14 -199 0
-23 -14 199 0
25 24 58 0
25 -24 -58 0
-25 24 -58 0
-25 -24 58 0
26 24 69 0
26 -24 -69 0
-26 24 -69 0
-26 -24 69 0
27 24 120 0
27 -24 -120 0
-27 24 -120 0
-27 -24 120 0
28 24 167 0
28 -24 -167 0
-28 24 -167 0
-28 -24 167 0
29 24 171 0
29 -24 -171 0
-29 24 -171 0
-29 -24 171 0
30 24 192 0
30 -24 -192 0
-30 24 -192 0
-30 -24 192 0
32 31 39 0
32 -31 -39 0
-32 31 -39 0
-32 -31 39 0
33 31 69 0
33 -31 -69 0
-33 31 -69 0
-33 -31 69 0
34 31 123 0
34 -31 -123 0
-34 31 -123 0
-34 -31 123 0
35 31 131 0
35 -31 -131 0
-35 31 -131 0
-35 -31 131 0
36 31 167 0
36 -31 -167 0
-36 31 -167 0
-36 -31 167 0
37 31 171 0
37 -31 -171 0
-37 31 -171 0
-37 -31 171 0
38 31 186 0
38 -31 -186 0
-38 31 -186 0
-38 -31 186 0
40 39 123 0
40 -39 -123 0
-40 39 -123 0
-40 -39 123 0
41 39 153 0
41 -39 -153 0
-41 39 -153 0
-41 -39 153 0
42 39 185 0
42 -39 -185 0
-42 39 -185 0
-42 -39 185 0
43 39 197 0
43 -39 -197 0
-43 39 -197 0
-43 -39 197 0
44 39 199 0
44 -39 -199 0
-44 39 -199 0
-44 -39 199 0
46 45 103 0
46 -45 -103 0
-46 45 -103 0
-46 -45 103 0
47 45 153 0
47 -45 -153 0
-47 45 -153 0
-47 -45 153 0
48 45 172 0
48 -45 -172 0
-48 45 -172 0
-48 -45 172 0
49 45 187 0
49 -45 -187 0
-49 45 -187 0
-49 -45 187 0
51 50 103 0
51 -50 -103 0
-51 50 -103 0
-51 -50 103 0
52 50 131 0
52 -50 -131 0
-52 50 -131 0
-52 -50 131 0
53 50 135 0
53 -50 -135 0
-53 50 -135 0
-53 -50 135 0
54 50 156 0
54 -50 -156 0
-54 50 -156 0
-54 -50 156 0
55 50 187 0
55 -50 -187 0
-55 50 -187 0
-55 -50 187 0
56 50 192 0
56 -50 -192 0
-56 50 -192 0
-56 -50 192 0
57 50 196 0
57 -50 -196 0
-57 50 -196 0
-57 -50 196 0
59 58 69 0
59 -58 -69 0
-59 58 -69 0
-59 -58 69 0
60 58 78 0
60 -58 -78 0
-60 58 -78 0
-60 -58 78 0
61 58 82 0
61 -58 -82 0
-61 58 -82 0
-61 -58 82 0
62 58 120 0
62 -58 -120 0
-62 58 -120 0
-62 -58 120 0
63 58 135 0
63 -58 -135 0
-63 58 -135 0
-63 -58 135 0
64 58 147 0
64 -58 -147 0
-64 58 -147 0
-64 -58 147 0
65 58 161 0
65 -58 -161 0
-65 58 -161 0
-65 -58 161 0
66 58 177 0
66 -58 -177 0
-66 58 -177 0
-66 -58 177 0
67 58 196 0
67 -58 -196 0
-67 58 -196 0
-67 -58 196 0
68 58 197 0
68 -58 -197 0
-68 58 -197 0
-68 -58 197 0
70 69 109 0
70 -69 -109 0
-70 69 -109 0
-70 -69 109 0
71 69 161 0
71 -69 -161 0
-71 69 -161 0
-71 -69 161 0
72 69 180 0
72 -69 -180 0
-72 69 -180 0
-72 -69 180 0
73 69 182 0
73 -69 -182 0
-73 69 -182 0
-73 -69 182 0
75 74 103 0
75 -74 -103 0
-75 74 -103 0
-75 -74 103 0
76 74 135 0
76 -74 -135 0
-76 74 -135 0
-76 -74 135 0
77 74 183 0
77 -74 -183 0
-77 74 -183 0
-77 -74 183 0
79 78 131 0
79 -78 -131 0
-79 78 -131 0
-79 -78 131 0
80 78 154 0
80 -78 -154 0
-80 78 -154 0
-80 -78 154 0
81 78 186 0
81 -78 -186 0
-81 78 -186 0
-81 -78 186 0
83 82 135 0
83 -82 -135 0
-83 82 -135 0
-83 -82 135 0
84 82 196 0
84 -82 -196 0
-84 82 -196 0
-84 -82 196 0
85 82 197 0
85 -82 -197 0
-85 82 -197 0
-85 -82 197 0
87 86 153 0
87 -86 -153 0
-87 86 -153 0
-87 -86 153 0
88 86 177 0
88 -86 -177 0
-88 86 -177 0
-88 -86 177 0
90 89 109 0
90 -89 -109 0
-90 89 -109 0
-90 -89 109 0
91 89 115 0
91 -89 -115 0
-91 89 -115 0
-91 -89 115 0
92 89 123 0
92 -89 -123 0
-92 89 -123 0
-92 -89 123 0
93 89 135 0
93 -89 -135 0
-93 89 -135 0
-93 -89 135 0
94 89 147 0
94 -89 -147 0
-94 89 -147 0
-94 -89 147 0
95 89 153 0
95 -89 -153 0
-95 89 -153 0
-95 -89 153 0
96 89 167 0
96 -89 -167 0
-96 89 -167 0
-96 -89 167 0
97 89 183 0
97 -89 -183 0
-97 89 -183 0
-97 -89 183 0
99 98 167 0
99 -98 -167 0
-99 98 -167 0
-99 -98 167 0
100 98 176 0
100 -98 -176 0
-100 98 -176 0
-100 -98 176 0
101 98 197 0
101 -98 -197 0
-101 98 -197 0
-101 -98 197 0
102 98 199 0
102 -98 -199 0
-102 98 -199 0
-102 -98 199 0
104 103 109 0
104 -103 -109 0
-104 103 -109 0
-104 -103 109 0
105 103 131 0
105 -103 -131 0
-105 103 -131 0
-105 -103 131 0
106 103 153 0
106 -103 -153 0
-106 103 -153 0
-106 -103 153 0
107 103 180 0
107 -103 -180 0
-107 103 -180 0
-107 -103 180 0
108 103 197 0
108 -103 -197 0
-108 103 -197 0
-108 -103 197 0
110 109 147 0
110 -109 -147 0
-110 109 -147 0
-110 -109 147 0
111 109 183 0
111 -109 -183 0
-111 109 -183 0
-111 -109 183 0
112 109 187 0
112 -109 -187 0
-112 109 -187 0
-112 -109 187 0
113 109 197 0
113 -109 -197 0
-113 109 -197 0
-113 -109 197 0
114 109 200 0
114 -109 -200 0
-114 109 -200 0
-114 -109 200 0
116 115 177 0
116 -115 -177 0
-116 115 -177 0
-116 -115 177 0
117 115 180 0
117 -115 -180 0
-117 115 -180 0
-117 -115 180 0
118 115 194 0
118 -115 -194 0
-118 115 -194 0
-118 -115 194 0
119 115 199 0
119 -115 -199 0
-119 115 -199 0
-119 -115 199 0
121 120 161 0
121 -120 -161 0
-121 120 -161 0
-121 -120 161 0
122 120 197 0
122 -120 -197 0
-122 120 -197 0
-122 -120 197 0
124 123 156 0
124 -123 -156 0
-124 123 -156 0
-124 -123 156 0
125 123 190 0
125 -123 -190 0
-125 123 -190 0
-125 -123 190 0
126 123 194 0
126 -123 -194 0
-126 123 -194 0
-126 -123 194 0
127 123 196 0
127 -123 -196 0
-127 123 -196 0
-127 -123 196 0
129 128 147 0
129 -128 -147 0
-129 128 -147 0
-129 -128 147 0
130 128 180 0
130 -128 -180 0
-130 128 -180 0
-130 -128 180 0
132 131 161 0
132 -131 -161 0
-132 131 -161 0
-132 -131 161 0
133 131 167 0
133 -131 -167 0
-133 131 -167 0
-133 -131 167 0
134 131 176 0
134 -131 -176 0
-134 131 -176 0
-134 -131 176 0
136 135 176 0
136 -135 -176 0
-136 135 -176 0
-136 -135 176 0
137 135 194 0
137 -135 -194 0
-137 135 -194 0
-137 -135 194 0
138 135 199 0
138 -135 -199 0
-138 135 -199 0
-138 -135 199 0
140 139 171 0
140 -139 -171 0
-140 139 -171 0
-140 -139 171 0
141 139 183 0
141 -139 -183 0
-141 139 -183 0
-141 -139 183 0
142 139 199 0
142 -139 -199 0
-142 139 -199 0
-142 -139 199 0
144 143 161 0
144 -143 -161 0
-144 143 -161 0
-144 -143 161 0
145 143 172 0
145 -143 -172 0
-145 143 -172 0
-145 -143 172 0
146 143 197 0
146 -143 -197 0
-146 143 -197 0
-146 -143 197 0
148 147 153 0
148 -147 -153 0
-148 147 -153 0
-148 -147 153 0
149 147 167 0
149 -147 -167 0
-149 147 -167 0
-149 -147 167 0
150 147 177 0
150 -147 -177 0
-150 147 -177 0
-150 -147 177 0
151 147 185 0
151 -147 -185 0
-151 147 -185 0
-151 -147 185 0
152 147 194 0
152 -147 -194 0
-152 147 -194 0
-152 -147 194 0
155 154 161 0
155 -154 -161 0
-155 154 -161 0
-155 -154 161 0
157 156 185 0
157 -156 -185 0
-157 156 -185 0
-157 -156 185 0
158 156 186 0
158 -156 -186 0
-158 156 -186 0
-158 -156 186 0
160 159 176 0
160 -159 -176 0
-160 159 -176 0
-160 -159 176 0
162 161 167 0
162 -161 -167 0
-162 161 -167 0
-162 -161 167 0
163 161 177 0
163 -161 -177 0
-163 161 -177 0
-163 -161 177 0
164 161 180 0
164 -161 -180 0
-164 161 -180 0
-164 -161 180 0
165 161 194 0
165 -161 -194 0
-165 161 -194 0
-165 -161 194 0
166 161 197 0
166 -161 -197 0
-166 161 -197 0
-166 -161 197 0
168 167 172 0
168 -167 -172 0
-168 167 -172 0
-168 -167 172 0
169 167 176 0
169 -167 -176 0
-169 167 -176 0
-169 -167 176 0
170 167 190 0
170 -167 -190 0
-170 167 -190 0
-170 -167 190 0
173 172 182 0
173 -172 -182 0
-173 172 -182 0
-173 -172 182 0
174 172 183 0
174 -172 -183 0
-174 172 -183 0
-174 -172 183 0
175 172 190 0
175 -172 -190 0
-175 172 -190 0
-175 -172 190 0
178 177 185 0
178 -177 -185 0
-178 177 -185 0
-178 -177 185 0
179 177 190 0
179 -177 -190 0
-179 177 -190 0
-179 -177 190 0
181 180 192 0
181 -180 -192 0
-181 180 -192 0
-181 -180 192 0
184 183 196 0
184 -183 -196 0
-184 183 -196 0
-184 -183 196 0
188 187 196 0
188 -187 -196 0
-188 187 -196 0
-188 -187 196 0
189 187 199 0
189 -187 -199 0
-189 187 -199 0
-189 -187 199 0
191 190 192 0
191 -190 -192 0
-191 190 -192 0
-191 -190 192 0
193 192 194 0
193 -192 -194 0
-193 192 -194 0
-193 -192 194 0
195 194 199 0
195 -194 -199 0
-195 194 -199 0
-195 -194 199 0
198 197 199 0
198 -197 -199 0
-198 197 -199 0
-198 -197 199 0
